NAME : ClusterId_1042 
COMMENT : (Gillet and Johnson) 
TYPE : CVRP 
DIMENSION : 27 
EDGE_WEIGHT_TYPE : EUC_2D 
CAPACITY : 500 
NODE_COORD_SECTION 
1042 4094 7359 
522 4182 7953 
26 4143 7791 
800 4438 7793 
841 4277 7711 
825 3758 7243 
71 3956 7252 
658 4737 7476 
868 4678 7448 
448 6104 8131 
628 4117 7247 
239 4699 7399 
332 6127 7817 
27 6388 8390 
446 6446 8135 
700 6787 8849 
377 7023 8282 
962 8197 9539 
916 7452 8597 
689 8152 9361 
7 7437 8419 
21 8274 9240 
579 8893 9602 
482 8773 9517 
564 7626 8218 
976 8044 8307 
822 8357 8666 
DEMAND_SECTION 
1042 1042
522 30
26 44
800 46
841 33
825 30
71 32
658 39
868 47
448 32
628 32
239 51
332 50
27 47
446 47
700 55
377 42
962 55
916 34
689 36
7 25
21 38
579 25
482 48
564 52
976 27
822 35
DEPOT_SECTION 
1042
 -1
EOF